
Gurobi 9.0.1 (linux64) logging started Thu Apr 30 19:16:17 2020

Gurobi Optimizer version 9.0.1 build v9.0.1rc0 (linux64)
Optimize a model with 32222 rows, 27380 columns and 603960 nonzeros
Model fingerprint: 0xc2318903
Variable types: 0 continuous, 27380 integer (27342 binary)
Coefficient statistics:
  Matrix range     [1e+00, 2e+01]
  Objective range  [2e+00, 1e+02]
  Bounds range     [1e+00, 1e+00]
  RHS range        [1e+00, 1e+00]

User MIP start produced solution with objective 1186 (0.79s)
Loaded user MIP start with objective 1186

Presolve removed 14186 rows and 9389 columns (presolve time = 5s) ...
Presolve removed 14228 rows and 9449 columns
Presolve time: 9.90s
Presolved: 17994 rows, 17931 columns, 501020 nonzeros
Variable types: 0 continuous, 17931 integer (17895 binary)

Root simplex log...

Iteration    Objective       Primal Inf.    Dual Inf.      Time
       0    0.0000000e+00   1.940000e+02   0.000000e+00     12s
    2375    5.2700010e+02   4.350358e+03   0.000000e+00     15s
    4450    5.4024965e+02   3.799182e+03   0.000000e+00     20s
    5778    5.4265072e+02   2.096965e+04   0.000000e+00     25s
    7355    5.4453490e+02   9.940503e+04   0.000000e+00     30s
    8849    5.5037742e+02   3.173935e+04   0.000000e+00     35s
   10260    5.5383979e+02   1.747041e+03   0.000000e+00     40s
   11422    5.5646048e+02   3.823146e+03   0.000000e+00     45s
   12501    5.5772437e+02   5.885050e+03   0.000000e+00     50s
   13663    5.6001615e+02   5.921807e+05   0.000000e+00     55s
   14742    5.6087288e+02   3.661691e+03   0.000000e+00     60s
   15738    5.6233812e+02   4.963833e+03   0.000000e+00     65s
   16817    5.6338301e+02   4.929669e+03   0.000000e+00     70s
   17896    5.6445975e+02   1.653090e+04   0.000000e+00     75s
   18978    5.6522492e+02   2.094295e+03   0.000000e+00     80s
   19989    5.6589631e+02   1.739266e+03   0.000000e+00     85s
Warning: Markowitz tolerance tightened to 0.03125
   21154    5.6647118e+02   2.765417e+03   0.000000e+00     90s
   22187    5.6697996e+02   5.062871e+02   0.000000e+00     95s
   23278    5.6738181e+02   1.670527e+03   0.000000e+00    100s
   24291    5.6767773e+02   3.505432e+03   0.000000e+00    105s
   25315    5.6790858e+02   1.310266e+04   0.000000e+00    110s
   26491    5.6811931e+02   1.800860e+03   0.000000e+00    115s
   27549    5.6818964e+02   1.543948e+02   0.000000e+00    120s
   28379    5.6826117e+02   3.552661e+01   0.000000e+00    125s
   28590    5.6826700e+02   0.000000e+00   0.000000e+00    126s

Root relaxation: objective 5.682670e+02, 28590 iterations, 115.54 seconds

    Nodes    |    Current Node    |     Objective Bounds      |     Work
 Expl Unexpl |  Obj  Depth IntInf | Incumbent    BestBd   Gap | It/Node Time

     0     0  568.26700    0 1901 1186.00000  568.26700  52.1%     -  133s
     0     0  608.69458    0 1845 1186.00000  608.69458  48.7%     -  237s
     0     0  610.69012    0 1889 1186.00000  610.69012  48.5%     -  278s
     0     0  610.74815    0 1880 1186.00000  610.74815  48.5%     -  285s
     0     0  610.76572    0 1873 1186.00000  610.76572  48.5%     -  290s
     0     0  610.76663    0 1849 1186.00000  610.76663  48.5%     -  292s
     0     0  621.05149    0 1891 1186.00000  621.05149  47.6%     -  380s
     0     0  621.62468    0 1873 1186.00000  621.62468  47.6%     -  411s
     0     0  621.66076    0 1827 1186.00000  621.66076  47.6%     -  417s
     0     0  621.66086    0 1825 1186.00000  621.66086  47.6%     -  418s
     0     0  626.29888    0 1972 1186.00000  626.29888  47.2%     -  514s
     0     0  626.71554    0 1946 1186.00000  626.71554  47.2%     -  562s
     0     0  626.73500    0 1932 1186.00000  626.73500  47.2%     -  570s
     0     0  626.73770    0 1936 1186.00000  626.73770  47.2%     -  572s
     0     0  629.82841    0 2082 1186.00000  629.82841  46.9%     -  673s
     0     0  630.19513    0 2068 1186.00000  630.19513  46.9%     -  717s
     0     0  630.22328    0 2037 1186.00000  630.22328  46.9%     -  727s
     0     0  630.22470    0 2046 1186.00000  630.22470  46.9%     -  730s
     0     0  630.51109    0 2069 1186.00000  630.51109  46.8%     -  761s
     0     0  630.59214    0 2067 1186.00000  630.59214  46.8%     -  796s
     0     0  630.60699    0 2070 1186.00000  630.60699  46.8%     -  802s
     0     0  630.60990    0 2082 1186.00000  630.60990  46.8%     -  806s
     0     0  631.79897    0 2137 1186.00000  631.79897  46.7%     -  860s
     0     0  631.94096    0 2138 1186.00000  631.94096  46.7%     -  880s
     0     0  631.95910    0 2142 1186.00000  631.95910  46.7%     -  887s
     0     0  631.97271    0 2140 1186.00000  631.97271  46.7%     -  894s
     0     0  631.97432    0 2157 1186.00000  631.97432  46.7%     -  897s
     0     0  632.49354    0 2135 1186.00000  632.49354  46.7%     -  932s
     0     0  632.57298    0 2149 1186.00000  632.57298  46.7%     -  948s
     0     0  632.58599    0 2157 1186.00000  632.58599  46.7%     -  954s
     0     0  633.29910    0 2137 1186.00000  633.29910  46.6%     - 1006s
     0     0  633.44103    0 2154 1186.00000  633.44103  46.6%     - 1028s
     0     0  633.50458    0 2174 1186.00000  633.50458  46.6%     - 1038s
     0     0  633.52769    0 2172 1186.00000  633.52769  46.6%     - 1045s
     0     0  633.53050    0 2178 1186.00000  633.53050  46.6%     - 1049s
     0     0  634.28765    0 2185 1186.00000  634.28765  46.5%     - 1100s
     0     0  634.36578    0 2156 1186.00000  634.36578  46.5%     - 1119s
     0     0  634.37788    0 2167 1186.00000  634.37788  46.5%     - 1124s
     0     0  634.92872    0 2130 1186.00000  634.92872  46.5%     - 1157s
     0     0  635.02394    0 2159 1186.00000  635.02394  46.5%     - 1195s
     0     0  635.06607    0 2150 1186.00000  635.06607  46.5%     - 1204s
     0     0  635.07384    0 2131 1186.00000  635.07384  46.5%     - 1210s
     0     0  635.50625    0 2136 1186.00000  635.50625  46.4%     - 1245s
     0     0  635.56505    0 2118 1186.00000  635.56505  46.4%     - 1260s
     0     0  635.58386    0 2145 1186.00000  635.58386  46.4%     - 1266s
     0     0  635.61298    0 2155 1186.00000  635.61298  46.4%     - 1274s
     0     0  635.61891    0 2148 1186.00000  635.61891  46.4%     - 1278s
     0     0  636.11456    0 2190 1186.00000  636.11456  46.4%     - 1312s
     0     0  636.24611    0 2188 1186.00000  636.24611  46.4%     - 1334s
     0     0  636.29145    0 2175 1186.00000  636.29145  46.3%     - 1345s
     0     0  636.30202    0 2202 1186.00000  636.30202  46.3%     - 1350s
     0     0  636.66972    0 2155 1186.00000  636.66972  46.3%     - 1385s
     0     0  636.82683    0 2193 1186.00000  636.82683  46.3%     - 1411s
     0     0  636.88922    0 2186 1186.00000  636.88922  46.3%     - 1422s
     0     0  636.89925    0 2216 1186.00000  636.89925  46.3%     - 1428s
     0     0  637.76186    0 2168 1186.00000  637.76186  46.2%     - 1491s
     0     0  637.86849    0 2161 1186.00000  637.86849  46.2%     - 1511s
     0     0  637.94072    0 2168 1186.00000  637.94072  46.2%     - 1525s
     0     0  637.96271    0 2182 1186.00000  637.96271  46.2%     - 1532s
     0     0  637.96748    0 2184 1186.00000  637.96748  46.2%     - 1537s
     0     0  638.26835    0 2136 1186.00000  638.26835  46.2%     - 1567s
     0     0  638.34753    0 2123 1186.00000  638.34753  46.2%     - 1588s
     0     0  638.36368    0 2141 1186.00000  638.36368  46.2%     - 1594s
     0     0  638.47155    0 2114 1186.00000  638.47155  46.2%     - 1613s
     0     0  638.63773    0 2134 1186.00000  638.63773  46.2%     - 1663s
     0     0  638.65784    0 2163 1186.00000  638.65784  46.2%     - 1670s
     0     0  638.66310    0 2180 1186.00000  638.66310  46.1%     - 1675s
     0     0  639.59518    0 2174 1186.00000  639.59518  46.1%     - 1729s
     0     0  639.88178    0 2173 1186.00000  639.88178  46.0%     - 1760s
     0     0  639.92454    0 2186 1186.00000  639.92454  46.0%     - 1773s
     0     0  639.93255    0 2198 1186.00000  639.93255  46.0%     - 1780s
     0     0  640.04121    0 2182 1186.00000  640.04121  46.0%     - 1805s
     0     0  640.07148    0 2195 1186.00000  640.07148  46.0%     - 1820s
     0     0  640.08194    0 2202 1186.00000  640.08194  46.0%     - 1826s
     0     0  640.38915    0 2167 1186.00000  640.38915  46.0%     - 1862s
     0     0  640.41815    0 2169 1186.00000  640.41815  46.0%     - 1876s
     0     0  640.42383    0 2174 1186.00000  640.42383  46.0%     - 1882s
     0     0  641.39187    0 2141 1186.00000  641.39187  45.9%     - 1932s
     0     0  641.51213    0 2159 1186.00000  641.51213  45.9%     - 1957s
     0     0  641.56004    0 2154 1186.00000  641.56004  45.9%     - 1969s
     0     0  641.58535    0 2180 1186.00000  641.58535  45.9%     - 1978s
     0     0  641.58909    0 2182 1186.00000  641.58909  45.9%     - 1983s
     0     0  641.81230    0 2164 1186.00000  641.81230  45.9%     - 2009s
     0     0  641.85049    0 2176 1186.00000  641.85049  45.9%     - 2024s
     0     0  641.86186    0 2164 1186.00000  641.86186  45.9%     - 2032s
     0     0  642.20325    0 2159 1186.00000  642.20325  45.9%     - 2069s
     0     0  642.26490    0 2143 1186.00000  642.26490  45.8%     - 2092s
     0     0  642.27805    0 2163 1186.00000  642.27805  45.8%     - 2098s
     0     0  642.54041    0 2133 1186.00000  642.54041  45.8%     - 2128s
     0     0  642.61473    0 2170 1186.00000  642.61473  45.8%     - 2149s
     0     0  642.63653    0 2180 1186.00000  642.63653  45.8%     - 2157s
     0     0  643.16712    0 2171 1186.00000  643.16712  45.8%     - 2197s
     0     0  643.20471    0 2193 1186.00000  643.20471  45.8%     - 2249s
     0     0  643.21121    0 2206 1186.00000  643.21121  45.8%     - 2255s
     0     0  643.30034    0 2176 1186.00000  643.30034  45.8%     - 2277s
     0     0  643.30034    0 2174 1186.00000  643.30034  45.8%     - 2295s
     0     2  643.30616    0 2174 1186.00000  643.30616  45.8%     - 2630s
     1     3  659.39962    1 1823 1186.00000  643.30616  45.8% 43214 2977s
     2     4  643.36338    1 2152 1186.00000  643.36338  45.8% 22146 2986s
     3     5  645.06935    2 2102 1186.00000  643.36407  45.8% 17983 3068s
     4     6  648.92128    2 1824 1186.00000  645.07151  45.6% 19378 3247s
     5     7  645.97365    3 2090 1186.00000  645.07520  45.6% 16636 3295s

Cutting planes:
  Gomory: 1
  Cover: 2
  MIR: 163
  StrongCG: 14
  Zero half: 46
  Mod-K: 22
  RLT: 776

Explored 6 nodes (326921 simplex iterations) in 3600.02 seconds
Thread count was 1 (of 40 available processors)

Solution count 1: 1186 

Time limit reached
Best objective 1.186000000000e+03, best bound 6.460000000000e+02, gap 45.5312%

User-callback calls 51207, time in user-callback 0.17 sec
